&CONTROL
  calculation = 'scf'
  etot_conv_thr =   5.0000000000d-05
  forc_conv_thr =   1.0000000000d-04
  outdir = './scratch/'
  prefix = 'ch4'
  pseudo_dir = './pseudo/'
  tprnfor = .true.
  tstress = .true.
  verbosity = 'high'
/
&SYSTEM
  degauss =   2.0000000000d-02
  ecutwfc =   10.0000000000d+01
  ibrav = 1
  a = 10
  nat = 5
  nosym = .false.
  ntyp = 2
  occupations = 'smearing'
  smearing = 'cold'
  nspin = 2
  tot_magnetization = 0.0
/
&ELECTRONS
  conv_thr =   1.0000000000d-09
  electron_maxstep = 80
  mixing_beta =   4.0000000000d-01
/
ATOMIC_SPECIES
C      12.0107  C.pbe-tm-new-gipaw.UPF
H      1.00794  H.pbe-tm-new-gipaw.UPF
ATOMIC_POSITIONS crystal
C            0.0000000000       0.0000000000       0.0000000000
H            0.0000000000       0.0000000000       0.0544500000
H            0.0513360000       0.0000000000      -0.0181500000
H           -0.0256680000      -0.0444580000      -0.0181500000
H           -0.0256680000       0.0444580000      -0.0181500000
K_POINTS automatic
1 1 1 0 0 0

